r = [
0,54,81,81,87,154,64,77,186,171,146,167,38,181,54,23,56,65,117,93,161,39,10,12,64,191,0
];
p = [
0,25,22,9,6,6,15,9,28,29,19,21,24,19,5,7,2,25,23,27,6,18,14,30,4,2,0
];
e = [
0,15,7,18,8,4,17,6,19,14,17,20,7,4,11,6,15,19,11,11,19,10,1,16,13,12,0
];
d = [
0,288,361,452,182,201,313,103,500,402,292,390,207,210,386,134,295,376,293,398,513,125,201,42,309,313,525
];
d_bar = [
0,311,381,460,187,206,327,111,525,428,309,409,229,227,391,140,297,399,314,422,518,141,214,69,313,315,525
];
w = [
0,0.652173913,0.35,2.25,1.6,0.8,1.214285714,0.75,0.76,0.538461538,1,1.052631579,0.318181818,0.235294118,2.2,1,7.5,0.826086957,0.523809524,0.458333333,3.8,0.625,0.076923077,0.592592593,3.25,6,0
];
